p wcnf 27 270 7
1 1 4 7 10 13 16 19 22 25 0
2 2 5 8 11 14 17 20 23 26 0
3 3 6 9 12 15 18 21 24 27 0
7 -1 -11 0
7 -1 -12 0
7 -2 -10 0
7 -2 -12 0
7 -3 -10 0
7 -3 -11 0
7 -1 -14 0
7 -1 -15 0
7 -2 -13 0
7 -2 -15 0
7 -3 -13 0
7 -3 -14 0
7 -1 -17 0
7 -1 -18 0
7 -2 -16 0
7 -2 -18 0
7 -3 -16 0
7 -3 -17 0
7 -1 -26 0
7 -1 -27 0
7 -2 -25 0
7 -2 -27 0
7 -3 -25 0
7 -3 -26 0
7 -4 -17 0
7 -4 -18 0
7 -5 -16 0
7 -5 -18 0
7 -6 -16 0
7 -6 -17 0
7 -4 -20 0
7 -4 -21 0
7 -5 -19 0
7 -5 -21 0
7 -6 -19 0
7 -6 -20 0
7 -4 -26 0
7 -4 -27 0
7 -5 -25 0
7 -5 -27 0
7 -6 -25 0
7 -6 -26 0
7 -7 -11 0
7 -7 -12 0
7 -8 -10 0
7 -8 -12 0
7 -9 -10 0
7 -9 -11 0
7 -7 -14 0
7 -7 -15 0
7 -8 -13 0
7 -8 -15 0
7 -9 -13 0
7 -9 -14 0
7 -7 -17 0
7 -7 -18 0
7 -8 -16 0
7 -8 -18 0
7 -9 -16 0
7 -9 -17 0
7 -7 -20 0
7 -7 -21 0
7 -8 -19 0
7 -8 -21 0
7 -9 -19 0
7 -9 -20 0
7 -7 -23 0
7 -7 -24 0
7 -8 -22 0
7 -8 -24 0
7 -9 -22 0
7 -9 -23 0
7 -7 -26 0
7 -7 -27 0
7 -8 -25 0
7 -8 -27 0
7 -9 -25 0
7 -9 -26 0
7 -10 -14 0
7 -10 -15 0
7 -11 -13 0
7 -11 -15 0
7 -12 -13 0
7 -12 -14 0
7 -13 -17 0
7 -13 -18 0
7 -14 -16 0
7 -14 -18 0
7 -15 -16 0
7 -15 -17 0
7 -13 -20 0
7 -13 -21 0
7 -14 -19 0
7 -14 -21 0
7 -15 -19 0
7 -15 -20 0
7 -16 -20 0
7 -16 -21 0
7 -17 -19 0
7 -17 -21 0
7 -18 -19 0
7 -18 -20 0
7 -16 -23 0
7 -16 -24 0
7 -17 -22 0
7 -17 -24 0
7 -18 -22 0
7 -18 -23 0
7 -16 -26 0
7 -16 -27 0
7 -17 -25 0
7 -17 -27 0
7 -18 -25 0
7 -18 -26 0
7 -19 -23 0
7 -19 -24 0
7 -20 -22 0
7 -20 -24 0
7 -21 -22 0
7 -21 -23 0
7 -19 -26 0
7 -19 -27 0
7 -20 -25 0
7 -20 -27 0
7 -21 -25 0
7 -21 -26 0
7 -22 -26 0
7 -22 -27 0
7 -23 -25 0
7 -23 -27 0
7 -24 -25 0
7 -24 -26 0
7 -1 -4 0
7 -1 -7 0
7 -1 -10 0
7 -1 -13 0
7 -1 -16 0
7 -1 -19 0
7 -1 -22 0
7 -1 -25 0
7 -2 -5 0
7 -2 -8 0
7 -2 -11 0
7 -2 -14 0
7 -2 -17 0
7 -2 -20 0
7 -2 -23 0
7 -2 -26 0
7 -3 -6 0
7 -3 -9 0
7 -3 -12 0
7 -3 -15 0
7 -3 -18 0
7 -3 -21 0
7 -3 -24 0
7 -3 -27 0
7 -4 -7 0
7 -4 -10 0
7 -4 -13 0
7 -4 -16 0
7 -4 -19 0
7 -4 -22 0
7 -4 -25 0
7 -5 -8 0
7 -5 -11 0
7 -5 -14 0
7 -5 -17 0
7 -5 -20 0
7 -5 -23 0
7 -5 -26 0
7 -6 -9 0
7 -6 -12 0
7 -6 -15 0
7 -6 -18 0
7 -6 -21 0
7 -6 -24 0
7 -6 -27 0
7 -7 -10 0
7 -7 -13 0
7 -7 -16 0
7 -7 -19 0
7 -7 -22 0
7 -7 -25 0
7 -8 -11 0
7 -8 -14 0
7 -8 -17 0
7 -8 -20 0
7 -8 -23 0
7 -8 -26 0
7 -9 -12 0
7 -9 -15 0
7 -9 -18 0
7 -9 -21 0
7 -9 -24 0
7 -9 -27 0
7 -10 -13 0
7 -10 -16 0
7 -10 -19 0
7 -10 -22 0
7 -10 -25 0
7 -11 -14 0
7 -11 -17 0
7 -11 -20 0
7 -11 -23 0
7 -11 -26 0
7 -12 -15 0
7 -12 -18 0
7 -12 -21 0
7 -12 -24 0
7 -12 -27 0
7 -13 -16 0
7 -13 -19 0
7 -13 -22 0
7 -13 -25 0
7 -14 -17 0
7 -14 -20 0
7 -14 -23 0
7 -14 -26 0
7 -15 -18 0
7 -15 -21 0
7 -15 -24 0
7 -15 -27 0
7 -16 -19 0
7 -16 -22 0
7 -16 -25 0
7 -17 -20 0
7 -17 -23 0
7 -17 -26 0
7 -18 -21 0
7 -18 -24 0
7 -18 -27 0
7 -19 -22 0
7 -19 -25 0
7 -20 -23 0
7 -20 -26 0
7 -21 -24 0
7 -21 -27 0
7 -22 -25 0
7 -23 -26 0
7 -24 -27 0
7 -1 -2 0
7 -1 -3 0
7 -2 -3 0
7 -4 -5 0
7 -4 -6 0
7 -5 -6 0
7 -7 -8 0
7 -7 -9 0
7 -8 -9 0
7 -10 -11 0
7 -10 -12 0
7 -11 -12 0
7 -13 -14 0
7 -13 -15 0
7 -14 -15 0
7 -16 -17 0
7 -16 -18 0
7 -17 -18 0
7 -19 -20 0
7 -19 -21 0
7 -20 -21 0
7 -22 -23 0
7 -22 -24 0
7 -23 -24 0
7 -25 -26 0
7 -25 -27 0
7 -26 -27 0
